

units           metal
boundary        p p p
atom_style      atomic

neighbor        1.0 bin
neigh_modify    every 10 delay 0 check no

read_data       ./crd.lmp
replicate       2 2 2

pair_style      deepmd ./model.pb
pair_coeff      * *

variable        run0    equal   5000
variable        run1    equal   250
variable        run2    equal   5000
variable        run3    equal   100
variable        run4    equal   1000
variable        run5    equal   10000

variable        temp1   equal   300.0
variable        temp2   equal   1800.0
variable        temp3   equal   1000.0
variable        temp4   equal   600.0

variable        dt          equal       2e-3
variable        tau         equal       ${dt}*100
variable        showt   equal   100
variable        dumpt   equal   1

velocity        all create ${temp1} 123456789
timestep        ${dt}
thermo_style    custom step pe ke etotal temp press vol
thermo          ${showt}

#### s1-crystal-300K
label		crystal
fix             0 all nvt temp ${temp1} ${temp1} ${tau}
dump            1 all custom ${dumpt} crystal.dump id type x y z
run             ${run0}
write_restart	s1-crystal.restart
unfix           0
undump		1


#### s2-melt-2000K
## increase temperature:
variable	i loop 100
variable        t1    equal   ${temp1}
label		melt
variable        t1    equal   ${t1}+50
variable        t2    equal   ${t1}+50
fix             1 all nvt temp ${t1} ${t1} ${tau}
run             ${run1}
unfix           1
if		"${t2} == ${temp2}" then &
		"jump SELF liquid" &
else		"next i" &
		"jump SELF melt" 

label		liquid
fix             2 all nvt temp ${temp2} ${temp2} ${tau}
dump            1 all custom ${dumpt} liquid.dump id type x y z
run             ${run2}
write_restart   s3-liquid.restart
unfix           2
undump		1

# decrease temperature (above melting point):
variable        i loop 100
variable        t1    equal   ${temp2}
label           liquid_quench
variable        t1    equal   ${t1}-50
fix             1 all nvt temp ${t1} ${t1} ${tau}
run             ${run3}
unfix           1
next            i
if              "${t1} == ${temp3}" then &
                "jump SELF quench" &
else            "next i" &
                "jump SELF liquid_quench"

#### s3-quench 300K
label		quench
variable        i loop 100
variable        t1    equal   ${temp3}
label           amorphous_quench
variable        t1    equal   ${t1}-50
fix             1 all nvt temp ${t1} ${t1} ${tau}
run             ${run4}
unfix           1
if              "${t1} == ${temp1}" then &
		"write_restart   s4-quench.restart" &
                "jump SELF age" &
else            "next i" &
                "jump SELF amorphous_quench"

label		age
fix             4 all nvt temp ${temp1} ${temp1} ${tau}
dump            1 all custom ${dumpt} amorphous.dump id type x y z
run             ${run5}
write_restart   s5-amorphous.restart
unfix           4
undump		1

# ##### s4-Amo-600K: to increase temperature up to 600K
# 
# fix             7 all nvt temp ${temp1} ${temp4} ${tau}
# timestep        ${dt}
# thermo_style    custom step pe ke etotal temp press vol
# thermo          ${showt}
# run                 ${run7}
# write_restart   nvt7.restart
# unfix           7
# 
# 
# #### s8-Amo to crys: stable a time in 600K
# 
# fix             8 all nvt temp ${temp4} ${temp4} ${tau}
# timestep        ${dt}
# thermo_style    custom step pe ke etotal temp press vol
# thermo          ${showt}
# restart         100000 smc.restart
# run                 ${run8}
# write_restart   nvt8.restart
# unfix           8
# 
# ##### 600K -> 300K
# 
# fix             9 all nvt temp ${temp4} ${temp1} ${tau}
# timestep        ${dt}
# thermo_style    custom step pe ke etotal temp press vol
# thermo          ${showt}
# run                 ${run9}
# write_restart   nvt9.restart
# unfix           9
# 
# ##### 300K -> 300K
# 
# fix             10 all nvt temp ${temp1} ${temp1} ${tau}
# timestep        ${dt}
# thermo_style    custom step pe ke etotal temp press vol
# thermo          ${showt}
# run                 ${run10}
# write_restart   nvt10.restart
# unfix           10
