# bulk water

variable        nsteps equal 200000
variable        rdf_start equal 20000
variable        rdf_every equal 100
variable        rdf_repeat equal (${nsteps}-${rdf_start})/${rdf_every}

units           metal
boundary        p p p
atom_style      atomic

neighbor        2.0 bin
neigh_modify    every 20 delay 0 check no

read_data       water.lmp
mass            1 16
mass            2 2

replicate       2 2 2

pair_style      mdpu model.pb
#pair_style      deepmd model.pb
pair_coeff	    * *

velocity        all create 330.0 12835

fix             1 all nvt temp 330.0 330.0 0.5
timestep        0.0005

# see lammps rdf API at https://lammps.sandia.gov/doc/compute_rdf.html
compute         myRDF all rdf 100 1 1 1 2 2 2
fix             2 all ave/time ${rdf_every} ${rdf_repeat} ${nsteps} c_myRDF[*] file tmp.rdf mode vector

thermo_style    custom step pe ke etotal temp press vol
thermo          200

run             ${nsteps}
